Minimize
	value: tt

Subject to
tt + 1000 s_1_1 > 0.0
tt - t_1_1 - 1001.017615 s_1_1  + 1.017615 s_1_7  > -998.945733
tt + 1000 s_2_1 > 0.0
tt - t_2_1 - 1000.831740 s_2_1  + 0.831740 s_2_7  > -992.384195
tt + 1000 s_1_2 > 0.0
tt - t_1_2 - 1001.017615 s_1_2  + 1.017615 s_1_8  > -998.893189
tt + 1000 s_2_2 > 0.0
tt - t_2_2 - 1000.831740 s_2_2  + 0.831740 s_2_8  > -992.252090
tt + 1000 s_1_3 > 0.0
tt - t_1_3 - 1001.017615 s_1_3  + 1.017615 s_1_8  > -998.511689
tt + 1000 s_2_3 > 0.0
tt - t_2_3 - 1000.831740 s_2_3  + 0.831740 s_2_8  > -987.877592
tt + 1000 s_1_4 > 0.0
tt - t_1_4 - 1002.035230 s_1_4  + 1.017615 s_1_8  + 1.017615 s_1_3  > -999.220311
tt + 1000 s_2_4 > 0.0
tt - t_2_4 - 1001.663480 s_2_4  + 0.831740 s_2_8  + 0.831740 s_2_3  > -992.571567
tt + 1000 s_1_5 > 0.0
tt - t_1_5 - 1002.035230 s_1_5  + 1.017615 s_1_7  + 1.017615 s_1_8  > -999.249700
tt + 1000 s_2_5 > 0.0
tt - t_2_5 - 1001.663480 s_2_5  + 0.831740 s_2_7  + 0.831740 s_2_8  > -993.840598
tt + 1000 s_1_6 > 0.0
tt - t_1_6 - 1005.088074 s_1_6  + 1.017615 s_1_5  + 1.017615 s_1_1  + 1.017615 s_1_4  + 1.017615 s_1_3  + 1.017615 s_1_2  > -999.897000
tt + 1000 s_2_6 > 0.0
tt - t_2_6 - 1004.158701 s_2_6  + 0.831740 s_2_5  + 0.831740 s_2_1  + 0.831740 s_2_4  + 0.831740 s_2_3  + 0.831740 s_2_2  > -996.595222
tt + 1000 s_1_7 > 0.0
tt - t_1_7 - 1000.000000 s_1_7  > -997.927989
tt + 1000 s_2_7 > 0.0
tt - t_2_7 - 1000.000000 s_2_7  > -994.685275
tt + 1000 s_1_8 > 0.0
tt - t_1_8 - 1000.000000 s_1_8  > -997.970678
tt + 1000 s_2_8 > 0.0
tt - t_2_8 - 1000.000000 s_2_8  > -993.292967
s_1_1 + s_2_1 = 1
s_1_2 + s_2_2 = 1
s_1_3 + s_2_3 = 1
s_1_4 + s_2_4 = 1
s_1_5 + s_2_5 = 1
s_1_6 + s_2_6 = 1
s_1_7 + s_2_7 = 1
s_1_8 + s_2_8 = 1
s_1_1 + s_1_2 + 1000 r_1_1_2 >= 2
- s_1_1 - s_1_2 - 1000 r_1_1_2 >= -1001
t_1_1 - t_1_2 - 1000.000000 u_1_1_2 - 1.017615 s_1_2  + 1.017615 s_1_8  + 2000.000000 r_1_1_2 > -998.893189
s_2_1 + s_2_2 + 1000 r_2_1_2 >= 2
- s_2_1 - s_2_2 - 1000 r_2_1_2 >= -1001
t_2_1 - t_2_2 - 1000.000000 u_2_1_2 - 0.831740 s_2_2  + 0.831740 s_2_8  + 2000.000000 r_2_1_2 > -992.252090
s_1_1 + s_1_3 + 1000 r_1_1_3 >= 2
- s_1_1 - s_1_3 - 1000 r_1_1_3 >= -1001
t_1_1 - t_1_3 - 1000.000000 u_1_1_3 - 1.017615 s_1_3  + 1.017615 s_1_8  + 2000.000000 r_1_1_3 > -998.511689
s_2_1 + s_2_3 + 1000 r_2_1_3 >= 2
- s_2_1 - s_2_3 - 1000 r_2_1_3 >= -1001
t_2_1 - t_2_3 - 1000.000000 u_2_1_3 - 0.831740 s_2_3  + 0.831740 s_2_8  + 2000.000000 r_2_1_3 > -987.877592
s_1_1 + s_1_4 + 1000 r_1_1_4 >= 2
- s_1_1 - s_1_4 - 1000 r_1_1_4 >= -1001
t_1_1 - t_1_4 - 1000.000000 u_1_1_4 - 2.035230 s_1_4  + 1.017615 s_1_8  + 1.017615 s_1_3  + 2000.000000 r_1_1_4 > -999.220311
s_2_1 + s_2_4 + 1000 r_2_1_4 >= 2
- s_2_1 - s_2_4 - 1000 r_2_1_4 >= -1001
t_2_1 - t_2_4 - 1000.000000 u_2_1_4 - 1.663480 s_2_4  + 0.831740 s_2_8  + 0.831740 s_2_3  + 2000.000000 r_2_1_4 > -992.571567
s_1_1 + s_1_5 + 1000 r_1_1_5 >= 2
- s_1_1 - s_1_5 - 1000 r_1_1_5 >= -1001
t_1_1 - t_1_5 - 1000.000000 u_1_1_5 - 2.035230 s_1_5  + 1.017615 s_1_7  + 1.017615 s_1_8  + 2000.000000 r_1_1_5 > -999.249700
s_2_1 + s_2_5 + 1000 r_2_1_5 >= 2
- s_2_1 - s_2_5 - 1000 r_2_1_5 >= -1001
t_2_1 - t_2_5 - 1000.000000 u_2_1_5 - 1.663480 s_2_5  + 0.831740 s_2_7  + 0.831740 s_2_8  + 2000.000000 r_2_1_5 > -993.840598
t_1_6 - t_1_1 - 1001.017615 s_1_1  + 1.017615 s_1_7  > -998.945733
t_1_6 - t_2_1 - 1000.831740 s_2_1  + 0.831740 s_2_7  > -992.384195
t_2_6 - t_1_1 - 1001.017615 s_1_1  + 1.017615 s_1_7  > -998.945733
t_2_6 - t_2_1 - 1000.831740 s_2_1  + 0.831740 s_2_7  > -992.384195
t_1_1 - t_1_7 - 1000.000000 s_1_7  > -997.927989
t_1_1 - t_2_7 - 1000.000000 s_2_7  > -994.685275
t_2_1 - t_1_7 - 1000.000000 s_1_7  > -997.927989
t_2_1 - t_2_7 - 1000.000000 s_2_7  > -994.685275
s_1_1 + s_1_8 + 1000 r_1_1_8 >= 2
- s_1_1 - s_1_8 - 1000 r_1_1_8 >= -1001
t_1_1 - t_1_8 - 1000.000000 u_1_1_8 - 0.000000 s_1_8  + 2000.000000 r_1_1_8 > -997.970678
s_2_1 + s_2_8 + 1000 r_2_1_8 >= 2
- s_2_1 - s_2_8 - 1000 r_2_1_8 >= -1001
t_2_1 - t_2_8 - 1000.000000 u_2_1_8 - 0.000000 s_2_8  + 2000.000000 r_2_1_8 > -993.292967
s_1_2 + s_1_1 + 1000 r_1_1_2 >= 2
- s_1_2 - s_1_1 - 1000 r_1_1_2 >= -1001
t_1_2 - t_1_1 + 1000.000000 u_1_1_2 - 1.017615 s_1_1  + 1.017615 s_1_7  + 2000.000000 r_1_1_2 > 1.054267
s_2_2 + s_2_1 + 1000 r_2_1_2 >= 2
- s_2_2 - s_2_1 - 1000 r_2_1_2 >= -1001
t_2_2 - t_2_1 + 1000.000000 u_2_1_2 - 0.831740 s_2_1  + 0.831740 s_2_7  + 2000.000000 r_2_1_2 > 7.615805
s_1_2 + s_1_3 + 1000 r_1_2_3 >= 2
- s_1_2 - s_1_3 - 1000 r_1_2_3 >= -1001
t_1_2 - t_1_3 - 1000.000000 u_1_2_3 - 1.017615 s_1_3  + 1.017615 s_1_8  + 2000.000000 r_1_2_3 > -998.511689
s_2_2 + s_2_3 + 1000 r_2_2_3 >= 2
- s_2_2 - s_2_3 - 1000 r_2_2_3 >= -1001
t_2_2 - t_2_3 - 1000.000000 u_2_2_3 - 0.831740 s_2_3  + 0.831740 s_2_8  + 2000.000000 r_2_2_3 > -987.877592
s_1_2 + s_1_4 + 1000 r_1_2_4 >= 2
- s_1_2 - s_1_4 - 1000 r_1_2_4 >= -1001
t_1_2 - t_1_4 - 1000.000000 u_1_2_4 - 2.035230 s_1_4  + 1.017615 s_1_8  + 1.017615 s_1_3  + 2000.000000 r_1_2_4 > -999.220311
s_2_2 + s_2_4 + 1000 r_2_2_4 >= 2
- s_2_2 - s_2_4 - 1000 r_2_2_4 >= -1001
t_2_2 - t_2_4 - 1000.000000 u_2_2_4 - 1.663480 s_2_4  + 0.831740 s_2_8  + 0.831740 s_2_3  + 2000.000000 r_2_2_4 > -992.571567
s_1_2 + s_1_5 + 1000 r_1_2_5 >= 2
- s_1_2 - s_1_5 - 1000 r_1_2_5 >= -1001
t_1_2 - t_1_5 - 1000.000000 u_1_2_5 - 2.035230 s_1_5  + 1.017615 s_1_7  + 1.017615 s_1_8  + 2000.000000 r_1_2_5 > -999.249700
s_2_2 + s_2_5 + 1000 r_2_2_5 >= 2
- s_2_2 - s_2_5 - 1000 r_2_2_5 >= -1001
t_2_2 - t_2_5 - 1000.000000 u_2_2_5 - 1.663480 s_2_5  + 0.831740 s_2_7  + 0.831740 s_2_8  + 2000.000000 r_2_2_5 > -993.840598
t_1_6 - t_1_2 - 1001.017615 s_1_2  + 1.017615 s_1_8  > -998.893189
t_1_6 - t_2_2 - 1000.831740 s_2_2  + 0.831740 s_2_8  > -992.252090
t_2_6 - t_1_2 - 1001.017615 s_1_2  + 1.017615 s_1_8  > -998.893189
t_2_6 - t_2_2 - 1000.831740 s_2_2  + 0.831740 s_2_8  > -992.252090
s_1_2 + s_1_7 + 1000 r_1_2_7 >= 2
- s_1_2 - s_1_7 - 1000 r_1_2_7 >= -1001
t_1_2 - t_1_7 - 1000.000000 u_1_2_7 - 0.000000 s_1_7  + 2000.000000 r_1_2_7 > -997.927989
s_2_2 + s_2_7 + 1000 r_2_2_7 >= 2
- s_2_2 - s_2_7 - 1000 r_2_2_7 >= -1001
t_2_2 - t_2_7 - 1000.000000 u_2_2_7 - 0.000000 s_2_7  + 2000.000000 r_2_2_7 > -994.685275
t_1_2 - t_1_8 - 1000.000000 s_1_8  > -997.970678
t_1_2 - t_2_8 - 1000.000000 s_2_8  > -993.292967
t_2_2 - t_1_8 - 1000.000000 s_1_8  > -997.970678
t_2_2 - t_2_8 - 1000.000000 s_2_8  > -993.292967
s_1_3 + s_1_1 + 1000 r_1_1_3 >= 2
- s_1_3 - s_1_1 - 1000 r_1_1_3 >= -1001
t_1_3 - t_1_1 + 1000.000000 u_1_1_3 - 1.017615 s_1_1  + 1.017615 s_1_7  + 2000.000000 r_1_1_3 > 1.054267
s_2_3 + s_2_1 + 1000 r_2_1_3 >= 2
- s_2_3 - s_2_1 - 1000 r_2_1_3 >= -1001
t_2_3 - t_2_1 + 1000.000000 u_2_1_3 - 0.831740 s_2_1  + 0.831740 s_2_7  + 2000.000000 r_2_1_3 > 7.615805
s_1_3 + s_1_2 + 1000 r_1_2_3 >= 2
- s_1_3 - s_1_2 - 1000 r_1_2_3 >= -1001
t_1_3 - t_1_2 + 1000.000000 u_1_2_3 - 1.017615 s_1_2  + 1.017615 s_1_8  + 2000.000000 r_1_2_3 > 1.106811
s_2_3 + s_2_2 + 1000 r_2_2_3 >= 2
- s_2_3 - s_2_2 - 1000 r_2_2_3 >= -1001
t_2_3 - t_2_2 + 1000.000000 u_2_2_3 - 0.831740 s_2_2  + 0.831740 s_2_8  + 2000.000000 r_2_2_3 > 7.747910
t_1_4 - t_1_3 - 1001.017615 s_1_3  + 1.017615 s_1_8  > -998.511689
t_1_4 - t_2_3 - 1000.831740 s_2_3  + 0.831740 s_2_8  > -987.877592
t_2_4 - t_1_3 - 1001.017615 s_1_3  + 1.017615 s_1_8  > -998.511689
t_2_4 - t_2_3 - 1000.831740 s_2_3  + 0.831740 s_2_8  > -987.877592
s_1_3 + s_1_5 + 1000 r_1_3_5 >= 2
- s_1_3 - s_1_5 - 1000 r_1_3_5 >= -1001
t_1_3 - t_1_5 - 1000.000000 u_1_3_5 - 2.035230 s_1_5  + 1.017615 s_1_7  + 1.017615 s_1_8  + 2000.000000 r_1_3_5 > -999.249700
s_2_3 + s_2_5 + 1000 r_2_3_5 >= 2
- s_2_3 - s_2_5 - 1000 r_2_3_5 >= -1001
t_2_3 - t_2_5 - 1000.000000 u_2_3_5 - 1.663480 s_2_5  + 0.831740 s_2_7  + 0.831740 s_2_8  + 2000.000000 r_2_3_5 > -993.840598
t_1_6 - t_1_3 - 1001.017615 s_1_3  + 1.017615 s_1_8  > -998.511689
t_1_6 - t_2_3 - 1000.831740 s_2_3  + 0.831740 s_2_8  > -987.877592
t_2_6 - t_1_3 - 1001.017615 s_1_3  + 1.017615 s_1_8  > -998.511689
t_2_6 - t_2_3 - 1000.831740 s_2_3  + 0.831740 s_2_8  > -987.877592
s_1_3 + s_1_7 + 1000 r_1_3_7 >= 2
- s_1_3 - s_1_7 - 1000 r_1_3_7 >= -1001
t_1_3 - t_1_7 - 1000.000000 u_1_3_7 - 0.000000 s_1_7  + 2000.000000 r_1_3_7 > -997.927989
s_2_3 + s_2_7 + 1000 r_2_3_7 >= 2
- s_2_3 - s_2_7 - 1000 r_2_3_7 >= -1001
t_2_3 - t_2_7 - 1000.000000 u_2_3_7 - 0.000000 s_2_7  + 2000.000000 r_2_3_7 > -994.685275
t_1_3 - t_1_8 - 1000.000000 s_1_8  > -997.970678
t_1_3 - t_2_8 - 1000.000000 s_2_8  > -993.292967
t_2_3 - t_1_8 - 1000.000000 s_1_8  > -997.970678
t_2_3 - t_2_8 - 1000.000000 s_2_8  > -993.292967
s_1_4 + s_1_1 + 1000 r_1_1_4 >= 2
- s_1_4 - s_1_1 - 1000 r_1_1_4 >= -1001
t_1_4 - t_1_1 + 1000.000000 u_1_1_4 - 1.017615 s_1_1  + 1.017615 s_1_7  + 2000.000000 r_1_1_4 > 1.054267
s_2_4 + s_2_1 + 1000 r_2_1_4 >= 2
- s_2_4 - s_2_1 - 1000 r_2_1_4 >= -1001
t_2_4 - t_2_1 + 1000.000000 u_2_1_4 - 0.831740 s_2_1  + 0.831740 s_2_7  + 2000.000000 r_2_1_4 > 7.615805
s_1_4 + s_1_2 + 1000 r_1_2_4 >= 2
- s_1_4 - s_1_2 - 1000 r_1_2_4 >= -1001
t_1_4 - t_1_2 + 1000.000000 u_1_2_4 - 1.017615 s_1_2  + 1.017615 s_1_8  + 2000.000000 r_1_2_4 > 1.106811
s_2_4 + s_2_2 + 1000 r_2_2_4 >= 2
- s_2_4 - s_2_2 - 1000 r_2_2_4 >= -1001
t_2_4 - t_2_2 + 1000.000000 u_2_2_4 - 0.831740 s_2_2  + 0.831740 s_2_8  + 2000.000000 r_2_2_4 > 7.747910
s_1_4 + s_1_5 + 1000 r_1_4_5 >= 2
- s_1_4 - s_1_5 - 1000 r_1_4_5 >= -1001
t_1_4 - t_1_5 - 1000.000000 u_1_4_5 - 2.035230 s_1_5  + 1.017615 s_1_7  + 1.017615 s_1_8  + 2000.000000 r_1_4_5 > -999.249700
s_2_4 + s_2_5 + 1000 r_2_4_5 >= 2
- s_2_4 - s_2_5 - 1000 r_2_4_5 >= -1001
t_2_4 - t_2_5 - 1000.000000 u_2_4_5 - 1.663480 s_2_5  + 0.831740 s_2_7  + 0.831740 s_2_8  + 2000.000000 r_2_4_5 > -993.840598
t_1_6 - t_1_4 - 1002.035230 s_1_4  + 1.017615 s_1_8  + 1.017615 s_1_3  > -999.220311
t_1_6 - t_2_4 - 1001.663480 s_2_4  + 0.831740 s_2_8  + 0.831740 s_2_3  > -992.571567
t_2_6 - t_1_4 - 1002.035230 s_1_4  + 1.017615 s_1_8  + 1.017615 s_1_3  > -999.220311
t_2_6 - t_2_4 - 1001.663480 s_2_4  + 0.831740 s_2_8  + 0.831740 s_2_3  > -992.571567
s_1_4 + s_1_7 + 1000 r_1_4_7 >= 2
- s_1_4 - s_1_7 - 1000 r_1_4_7 >= -1001
t_1_4 - t_1_7 - 1000.000000 u_1_4_7 - 0.000000 s_1_7  + 2000.000000 r_1_4_7 > -997.927989
s_2_4 + s_2_7 + 1000 r_2_4_7 >= 2
- s_2_4 - s_2_7 - 1000 r_2_4_7 >= -1001
t_2_4 - t_2_7 - 1000.000000 u_2_4_7 - 0.000000 s_2_7  + 2000.000000 r_2_4_7 > -994.685275
t_1_4 - t_1_8 - 1000.000000 s_1_8  > -997.970678
t_1_4 - t_2_8 - 1000.000000 s_2_8  > -993.292967
t_2_4 - t_1_8 - 1000.000000 s_1_8  > -997.970678
t_2_4 - t_2_8 - 1000.000000 s_2_8  > -993.292967
s_1_5 + s_1_1 + 1000 r_1_1_5 >= 2
- s_1_5 - s_1_1 - 1000 r_1_1_5 >= -1001
t_1_5 - t_1_1 + 1000.000000 u_1_1_5 - 1.017615 s_1_1  + 1.017615 s_1_7  + 2000.000000 r_1_1_5 > 1.054267
s_2_5 + s_2_1 + 1000 r_2_1_5 >= 2
- s_2_5 - s_2_1 - 1000 r_2_1_5 >= -1001
t_2_5 - t_2_1 + 1000.000000 u_2_1_5 - 0.831740 s_2_1  + 0.831740 s_2_7  + 2000.000000 r_2_1_5 > 7.615805
s_1_5 + s_1_2 + 1000 r_1_2_5 >= 2
- s_1_5 - s_1_2 - 1000 r_1_2_5 >= -1001
t_1_5 - t_1_2 + 1000.000000 u_1_2_5 - 1.017615 s_1_2  + 1.017615 s_1_8  + 2000.000000 r_1_2_5 > 1.106811
s_2_5 + s_2_2 + 1000 r_2_2_5 >= 2
- s_2_5 - s_2_2 - 1000 r_2_2_5 >= -1001
t_2_5 - t_2_2 + 1000.000000 u_2_2_5 - 0.831740 s_2_2  + 0.831740 s_2_8  + 2000.000000 r_2_2_5 > 7.747910
s_1_5 + s_1_3 + 1000 r_1_3_5 >= 2
- s_1_5 - s_1_3 - 1000 r_1_3_5 >= -1001
t_1_5 - t_1_3 + 1000.000000 u_1_3_5 - 1.017615 s_1_3  + 1.017615 s_1_8  + 2000.000000 r_1_3_5 > 1.488311
s_2_5 + s_2_3 + 1000 r_2_3_5 >= 2
- s_2_5 - s_2_3 - 1000 r_2_3_5 >= -1001
t_2_5 - t_2_3 + 1000.000000 u_2_3_5 - 0.831740 s_2_3  + 0.831740 s_2_8  + 2000.000000 r_2_3_5 > 12.122408
s_1_5 + s_1_4 + 1000 r_1_4_5 >= 2
- s_1_5 - s_1_4 - 1000 r_1_4_5 >= -1001
t_1_5 - t_1_4 + 1000.000000 u_1_4_5 - 2.035230 s_1_4  + 1.017615 s_1_8  + 1.017615 s_1_3  + 2000.000000 r_1_4_5 > 0.779689
s_2_5 + s_2_4 + 1000 r_2_4_5 >= 2
- s_2_5 - s_2_4 - 1000 r_2_4_5 >= -1001
t_2_5 - t_2_4 + 1000.000000 u_2_4_5 - 1.663480 s_2_4  + 0.831740 s_2_8  + 0.831740 s_2_3  + 2000.000000 r_2_4_5 > 7.428433
t_1_6 - t_1_5 - 1002.035230 s_1_5  + 1.017615 s_1_7  + 1.017615 s_1_8  > -999.249700
t_1_6 - t_2_5 - 1001.663480 s_2_5  + 0.831740 s_2_7  + 0.831740 s_2_8  > -993.840598
t_2_6 - t_1_5 - 1002.035230 s_1_5  + 1.017615 s_1_7  + 1.017615 s_1_8  > -999.249700
t_2_6 - t_2_5 - 1001.663480 s_2_5  + 0.831740 s_2_7  + 0.831740 s_2_8  > -993.840598
t_1_5 - t_1_7 - 1000.000000 s_1_7  > -997.927989
t_1_5 - t_2_7 - 1000.000000 s_2_7  > -994.685275
t_2_5 - t_1_7 - 1000.000000 s_1_7  > -997.927989
t_2_5 - t_2_7 - 1000.000000 s_2_7  > -994.685275
t_1_5 - t_1_8 - 1000.000000 s_1_8  > -997.970678
t_1_5 - t_2_8 - 1000.000000 s_2_8  > -993.292967
t_2_5 - t_1_8 - 1000.000000 s_1_8  > -997.970678
t_2_5 - t_2_8 - 1000.000000 s_2_8  > -993.292967
s_1_7 + s_1_2 + 1000 r_1_2_7 >= 2
- s_1_7 - s_1_2 - 1000 r_1_2_7 >= -1001
t_1_7 - t_1_2 + 1000.000000 u_1_2_7 - 1.017615 s_1_2  + 1.017615 s_1_8  + 2000.000000 r_1_2_7 > 1.106811
s_2_7 + s_2_2 + 1000 r_2_2_7 >= 2
- s_2_7 - s_2_2 - 1000 r_2_2_7 >= -1001
t_2_7 - t_2_2 + 1000.000000 u_2_2_7 - 0.831740 s_2_2  + 0.831740 s_2_8  + 2000.000000 r_2_2_7 > 7.747910
s_1_7 + s_1_3 + 1000 r_1_3_7 >= 2
- s_1_7 - s_1_3 - 1000 r_1_3_7 >= -1001
t_1_7 - t_1_3 + 1000.000000 u_1_3_7 - 1.017615 s_1_3  + 1.017615 s_1_8  + 2000.000000 r_1_3_7 > 1.488311
s_2_7 + s_2_3 + 1000 r_2_3_7 >= 2
- s_2_7 - s_2_3 - 1000 r_2_3_7 >= -1001
t_2_7 - t_2_3 + 1000.000000 u_2_3_7 - 0.831740 s_2_3  + 0.831740 s_2_8  + 2000.000000 r_2_3_7 > 12.122408
s_1_7 + s_1_4 + 1000 r_1_4_7 >= 2
- s_1_7 - s_1_4 - 1000 r_1_4_7 >= -1001
t_1_7 - t_1_4 + 1000.000000 u_1_4_7 - 2.035230 s_1_4  + 1.017615 s_1_8  + 1.017615 s_1_3  + 2000.000000 r_1_4_7 > 0.779689
s_2_7 + s_2_4 + 1000 r_2_4_7 >= 2
- s_2_7 - s_2_4 - 1000 r_2_4_7 >= -1001
t_2_7 - t_2_4 + 1000.000000 u_2_4_7 - 1.663480 s_2_4  + 0.831740 s_2_8  + 0.831740 s_2_3  + 2000.000000 r_2_4_7 > 7.428433
s_1_7 + s_1_8 + 1000 r_1_7_8 >= 2
- s_1_7 - s_1_8 - 1000 r_1_7_8 >= -1001
t_1_7 - t_1_8 - 1000.000000 u_1_7_8 - 0.000000 s_1_8  + 2000.000000 r_1_7_8 > -997.970678
s_2_7 + s_2_8 + 1000 r_2_7_8 >= 2
- s_2_7 - s_2_8 - 1000 r_2_7_8 >= -1001
t_2_7 - t_2_8 - 1000.000000 u_2_7_8 - 0.000000 s_2_8  + 2000.000000 r_2_7_8 > -993.292967
s_1_8 + s_1_1 + 1000 r_1_1_8 >= 2
- s_1_8 - s_1_1 - 1000 r_1_1_8 >= -1001
t_1_8 - t_1_1 + 1000.000000 u_1_1_8 - 1.017615 s_1_1  + 1.017615 s_1_7  + 2000.000000 r_1_1_8 > 1.054267
s_2_8 + s_2_1 + 1000 r_2_1_8 >= 2
- s_2_8 - s_2_1 - 1000 r_2_1_8 >= -1001
t_2_8 - t_2_1 + 1000.000000 u_2_1_8 - 0.831740 s_2_1  + 0.831740 s_2_7  + 2000.000000 r_2_1_8 > 7.615805
s_1_8 + s_1_7 + 1000 r_1_7_8 >= 2
- s_1_8 - s_1_7 - 1000 r_1_7_8 >= -1001
t_1_8 - t_1_7 + 1000.000000 u_1_7_8 - 0.000000 s_1_7  + 2000.000000 r_1_7_8 > 2.072011
s_2_8 + s_2_7 + 1000 r_2_7_8 >= 2
- s_2_8 - s_2_7 - 1000 r_2_7_8 >= -1001
t_2_8 - t_2_7 + 1000.000000 u_2_7_8 - 0.000000 s_2_7  + 2000.000000 r_2_7_8 > 5.314725
Binary
s_1_1
s_2_1
s_1_2
s_2_2
s_1_3
s_2_3
s_1_4
s_2_4
s_1_5
s_2_5
s_1_6
s_2_6
s_1_7
s_2_7
s_1_8
s_2_8
u_1_1_2
r_1_1_2
u_2_1_2
r_2_1_2
u_1_1_3
r_1_1_3
u_2_1_3
r_2_1_3
u_1_1_4
r_1_1_4
u_2_1_4
r_2_1_4
u_1_1_5
r_1_1_5
u_2_1_5
r_2_1_5
u_1_1_8
r_1_1_8
u_2_1_8
r_2_1_8
u_1_2_3
r_1_2_3
u_2_2_3
r_2_2_3
u_1_2_4
r_1_2_4
u_2_2_4
r_2_2_4
u_1_2_5
r_1_2_5
u_2_2_5
r_2_2_5
u_1_2_7
r_1_2_7
u_2_2_7
r_2_2_7
u_1_3_5
r_1_3_5
u_2_3_5
r_2_3_5
u_1_3_7
r_1_3_7
u_2_3_7
r_2_3_7
u_1_4_5
r_1_4_5
u_2_4_5
r_2_4_5
u_1_4_7
r_1_4_7
u_2_4_7
r_2_4_7
u_1_7_8
r_1_7_8
u_2_7_8
r_2_7_8

End
